(set-logic LIA)
(declare-var i Int)
(declare-var i! Int)
(declare-var conf_0 Int)
(declare-var conf_0! Int)
(declare-var conf_1 Int)
(declare-var conf_1! Int)
(declare-var conf_2 Int)
(declare-var conf_2! Int)
(declare-var conf_3 Int)
(declare-var conf_3! Int)
(declare-var conf_4 Int)
(declare-var conf_4! Int)
(declare-var x Int)
(declare-var x! Int)
(declare-var y Int)
(declare-var y! Int)
(declare-var tmp Int)
(declare-var tmp! Int)
(declare-var i_0 Int)
(declare-var i_0! Int)
(declare-var i_1 Int)
(declare-var i_1! Int)
(declare-var i_2 Int)
(declare-var i_2! Int)
(declare-var i_3 Int)
(declare-var i_3! Int)
(declare-var i_4 Int)
(declare-var i_4! Int)
(declare-var conf_0_0 Int)
(declare-var conf_0_0! Int)
(declare-var conf_1_0 Int)
(declare-var conf_1_0! Int)
(declare-var conf_1_1 Int)
(declare-var conf_1_1! Int)
(declare-var conf_1_2 Int)
(declare-var conf_1_2! Int)
(declare-var conf_1_3 Int)
(declare-var conf_1_3! Int)
(declare-var conf_2_0 Int)
(declare-var conf_2_0! Int)
(declare-var conf_3_0 Int)
(declare-var conf_3_0! Int)
(declare-var conf_4_0 Int)
(declare-var conf_4_0! Int)
(declare-var x_0 Int)
(declare-var x_0! Int)
(declare-var y_0 Int)
(declare-var y_0! Int)
(synth-fun inv-f((parameter0 Int)(parameter1 Int)(parameter2 Int)(parameter3 Int)(parameter4 Int)(parameter5 Int)(parameter6 Int)(parameter7 Int)(parameter8 Int)(parameter9 Int)(parameter10 Int)(parameter11 Int)(parameter12 Int)(parameter13 Int)(parameter14 Int)(parameter15 Int)(parameter16 Int)(parameter17 Int)(parameter18 Int)(parameter19 Int)(parameter20 Int)(parameter21 Int)(parameter22 Int)(parameter23 Int))Bool) 
(constraint (=> (and (= i i_1) (= conf_0 conf_0_0) (= conf_1 conf_1_0) (= conf_2 conf_2_0) (= conf_3 conf_3_0) (= conf_4 conf_4_0) (= x x_0) (= y y_0) (= conf_0_0 1) (= conf_1_0 6) (= conf_2_0 5) (= conf_3_0 1) (= conf_4_0 2) (= i_1 0) (>= x_0 0) (>= y_0 0) (>= x_0 y_0) )(inv-f i conf_0 conf_1 conf_2 conf_3 conf_4 x y tmp i_0 i_1 i_2 i_3 i_4 conf_0_0 conf_1_0 conf_1_1 conf_1_2 conf_1_3 conf_2_0 conf_3_0 conf_4_0 x_0 y_0 )))
(constraint (=> (and (inv-f i conf_0 conf_1 conf_2 conf_3 conf_4 x y tmp i_0 i_1 i_2 i_3 i_4 conf_0_0 conf_1_0 conf_1_1 conf_1_2 conf_1_3 conf_2_0 conf_3_0 conf_4_0 x_0 y_0 ) (or (and (= i_2 i) (= conf_1_1 conf_1) (= i_2 i!) (= conf_1_1 conf_1!) (= i i!) (= conf_0 conf_0!) (= conf_1 conf_1!) (= conf_2 conf_2!) (= conf_3 conf_3!) (= conf_4 conf_4!) (= x x!) (= y y!) (= tmp tmp!) ) (and (= i_2 i) (= conf_1_1 conf_1) (< i_2 y_0) (= i_3 (+ i_2 1 )) (= conf_1_2 (- conf_2_0 conf_4_0)) (= i_4 i_3) (= conf_1_3 conf_1_2) (= i_4 i!) (= conf_1_3 conf_1!) (= conf_0 conf_0_0) (= conf_0! conf_0_0) (= conf_2 conf_2_0) (= conf_2! conf_2_0) (= conf_3 conf_3_0) (= conf_3! conf_3_0) (= conf_4 conf_4_0) (= conf_4! conf_4_0) (= x x_0) (= x! x_0) (= y y_0) (= y! y_0) (= tmp tmp!) ) (and (= i_2 i) (= conf_1_1 conf_1) (not (< i_2 y_0)) (= i_4 i_2) (= conf_1_3 conf_1_1) (= i_4 i!) (= conf_1_3 conf_1!) (= conf_0 conf_0_0) (= conf_0! conf_0_0) (= conf_2 conf_2_0) (= conf_2! conf_2_0) (= conf_3 conf_3_0) (= conf_3! conf_3_0) (= conf_4 conf_4_0) (= conf_4! conf_4_0) (= x x_0) (= x! x_0) (= y y_0) (= y! y_0) (= tmp tmp!) ) ) )(inv-f i! conf_0! conf_1! conf_2! conf_3! conf_4! x! y! tmp! i_0! i_1! i_2! i_3! i_4! conf_0_0! conf_1_0! conf_1_1! conf_1_2! conf_1_3! conf_2_0! conf_3_0! conf_4_0! x_0! y_0! )))
(constraint (=> (inv-f i conf_0 conf_1 conf_2 conf_3 conf_4 x y tmp i_0 i_1 i_2 i_3 i_4 conf_0_0 conf_1_0 conf_1_1 conf_1_2 conf_1_3 conf_2_0 conf_3_0 conf_4_0 x_0 y_0 )(or (not (and (= i i_2) (= conf_0 conf_0_0) (= conf_1 conf_1_1) (= conf_2 conf_2_0) (= conf_3 conf_3_0) (= conf_4 conf_4_0) (= x x_0) (= y y_0) )) (not (and (< i_2 y_0) (not (< i_2 x_0)) )) )))
(check-synth)

